DIMENSION: 96
81
82
83
91
90
89
87
86
85
78
88
84
74
73
72
71
59
60
61
62
63
64
66
67
68
65
27
26
22
23
24
25
48
47
46
45
44
33
34
35
36
37
32
31
30
29
1
38
39
40
41
42
43
49
50
52
53
55
51
56
57
58
54
69
70
75
77
76
92
93
94
96
95
28
21
19
18
20
17
16
15
14
13
12
10
9
7
6
5
4
8
3
2
11
79
80
